Instance: Data/Instances_txt/inst_60_10_4.txt
SetUpTime: 10.491844177246094

Gurobi 10.0.1 (mac64[x86]) logging started Di  1 Aug 16:29:40 2023

Set parameter LogFile to value "Output/MILP_RELAXED_inst_60_10_4_2023-08-01_16-28-50.txt"
Set parameter TimeLimit to value 2700

Gurobi 10.0.1 (mac64[x86]) logging started Di  1 Aug 16:29:40 2023

Set parameter LogFile to value "Output/MILP_RELAXED_inst_60_10_4_2023-08-01_16-28-50.txt"
Gurobi Optimizer version 10.0.1 build v10.0.1rc0 (mac64[x86])

CPU model: Intel(R) Core(TM) i5-1038NG7 CPU @ 2.00GHz
Thread count: 4 physical cores, 8 logical processors, using up to 8 threads

Optimize a model with 121 rows, 18080 columns and 110135 nonzeros
Model fingerprint: 0x536d4497
Coefficient statistics:
  Matrix range     [1e+00, 1e+00]
  Objective range  [4e+00, 6e+03]
  Bounds range     [1e+00, 1e+00]
  RHS range        [1e+00, 1e+00]
Presolve time: 0.03s
Presolved: 121 rows, 18080 columns, 110135 nonzeros

Concurrent LP optimizer: dual simplex and barrier
Showing barrier log only...

Ordering time: 0.00s

Barrier statistics:
 AA' NZ     : 4.781e+03
 Factor NZ  : 7.381e+03 (roughly 7 MB of memory)
 Factor Ops : 5.979e+05 (less than 1 second per iteration)
 Threads    : 1

                  Objective                Residual
Iter       Primal          Dual         Primal    Dual     Compl     Time
   0   3.63263767e+06  0.00000000e+00  3.45e+02 0.00e+00  5.20e-01     0s
   1   5.33224413e+05 -1.56282646e+04  4.69e+01 1.24e-14  7.54e-02     0s
   2   5.84919552e+04 -5.83002871e+03  2.49e+00 1.24e-14  7.50e-03     0s
   3   3.17554388e+04  1.46878351e+04  3.52e-01 1.11e-14  1.73e-03     0s
   4   2.42983761e+04  1.87268232e+04  7.73e-03 1.07e-14  5.97e-04     0s
   5   2.30539370e+04  1.92926197e+04  3.32e-03 1.07e-14  4.04e-04     0s
   6   2.22339633e+04  1.98356763e+04  1.67e-03 1.24e-14  2.58e-04     0s
   7   2.15234830e+04  1.98989154e+04  7.77e-04 1.07e-14  1.75e-04     0s
   8   2.11575526e+04  2.00802932e+04  4.61e-04 1.11e-14  1.16e-04     0s
   9   2.05004589e+04  2.01430575e+04  4.58e-05 8.88e-15  3.86e-05     0s
  10   2.03309142e+04  2.02168647e+04  1.09e-05 1.29e-14  1.23e-05     0s
  11   2.02596571e+04  2.02326204e+04  1.63e-06 1.11e-14  2.92e-06     0s
  12   2.02471219e+04  2.02391612e+04  4.25e-07 9.77e-15  8.60e-07     0s
  13   2.02427959e+04  2.02406539e+04  8.04e-08 1.17e-14  2.31e-07     0s
  14   2.02419381e+04  2.02411513e+04  2.08e-08 1.42e-14  8.50e-08     0s
  15   2.02416446e+04  2.02414478e+04  3.99e-09 1.20e-14  2.13e-08     0s
  16   2.02415552e+04  2.02415403e+04  5.15e-11 1.07e-14  1.61e-09     0s
  17   2.02415500e+04  2.02415500e+04  2.21e-10 1.42e-14  2.90e-12     0s

Barrier solved model in 17 iterations and 0.12 seconds (0.10 work units)
Optimal objective 2.02415500e+04

Crossover log...

      79 DPushes remaining with DInf 0.0000000e+00                 0s
       0 DPushes remaining with DInf 0.0000000e+00                 0s

      21 PPushes remaining with PInf 0.0000000e+00                 0s
       0 PPushes remaining with PInf 0.0000000e+00                 0s

  Push phase complete: Pinf 0.0000000e+00, Dinf 5.4112270e-13      0s


Solved with barrier
Iteration    Objective       Primal Inf.    Dual Inf.      Time
     101    2.0241550e+04   0.000000e+00   0.000000e+00      0s

Solved in 101 iterations and 0.14 seconds (0.11 work units)
Optimal objective  2.024155000e+04

User-callback calls 232, time in user-callback 0.00 sec

=========================

OUTPUT STATISTICS
Relaxed: true
Time since start: 10.923396110534668
SetUpTime: 10.491844177246094
Objective value: 20241.55
Number of variables: 18080
Solving time: 0.4306609630584717
